Optimal - objective value -0.00000000
      0 C0000000       1.8646625                       0
      1 C0000001       1.8646625                       0
      2 C0000002               1                       0
      3 C0000003            1.08                      -1
      4 C0000004           -1.08                       0
      5 C0000005            1.92                       0
      6 C0000006            1.92          1.5460013e-016
      7 C0000007               1                       0
      8 C0000008            0.97                      -1
      9 C0000009           -0.97                       0
     10 C0000010               1                       0
     11 C0000011             1.8                      -1
     12 C0000012            -1.8                       0
     13 C0000013               1                       0
     14 C0000014            0.74                      -1
     15 C0000015           -0.74                       0
     16 C0000016               1                       0
     17 C0000017            0.71                      -1
     18 C0000018           -0.71                       0
     19 C0000019               1                       0
     20 C0000020            1.36                      -1
     21 C0000021           -1.36                       0
     22 C0000022               3                       0
     23 C0000023               3          -1.816285e-015
     24 C0000024               1                       0
     25 C0000025            1.25                      -1
     26 C0000026           -1.25                       0
     27 C0000027               1                       0
     28 C0000028            1.71                      -1
     29 C0000029           -1.71                       0
     30 C0000030               1                       0
     31 C0000031            1.75                      -1
     32 C0000032           -1.75                       0
     33 C0000033               1                       0
     34 C0000034            1.95                      -1
     35 C0000035           -1.95                       0
     36 C0000036               1                       0
     37 C0000037  8.8817842e-016                      -1
     38 C0000038 -8.8817842e-016                       0
     39 C0000039               1                       0
     40 C0000040  8.8817842e-016                      -1
     41 C0000041 -8.8817842e-016                       0
     42 C0000042            5.91                       0
     43 C0000043            5.91         -2.0338711e-015
     44 C0000044               1                       0
     45 C0000045            2.65                      -1
     46 C0000046           -2.65                       0
     47 C0000047               1                       0
     48 C0000048            1.94                      -1
     49 C0000049           -1.94                       0
     50 C0000050           0.663                       0
     51 C0000051           0.663         -2.6974289e-015
     52 C0000052               1                       0
     53 C0000053            3.17                      -1
     54 C0000054           -3.17                       0
     55 C0000055           0.543                       0
     56 C0000056           0.543         -2.7023959e-015
     57 C0000057               1                       0
     58 C0000058               1                      -1
     59 C0000059              -1                       0
     60 C0000060               1                       0
     61 C0000061 -4.4408921e-016                      -1
     62 C0000062  4.4408921e-016                       0
     63 C0000063               1                       0
     64 C0000064               1         -2.6767819e-015
     65 C0000065               1                       0
     66 C0000066            3.33                      -1
     67 C0000067           -3.33                       0
     68 C0000068               1                       0
     69 C0000069            1.81                      -1
     70 C0000070           -1.81                       0
     71 C0000071               1                       0
     72 C0000072            1.28                      -1
     73 C0000073           -1.28                       0
     74 C0000074               4                       0
     75 C0000075               4         -2.6733727e-015
     76 C0000076               1                       0
     77 C0000077               0                      -1
     78 C0000078               0                       0
     79 C0000079               3                       0
     80 C0000080               3         -2.7112159e-015
     81 C0000081               1                       0
     82 C0000082  4.4408921e-016                      -1
     83 C0000083 -4.4408921e-016                       0
     84 C0000084             6.6                       0
     85 C0000085             6.6         -1.1564928e-015
     86 C0000086               1                       0
     87 C0000087  8.8817842e-016                      -1
     88 C0000088 -8.8817842e-016                       0
     89 C0000089               1                       0
     90 C0000090 -1.7763568e-015                      -1
     91 C0000091  1.7763568e-015                       0
     92 C0000092      0.79529229                       0
     93 C0000093     -0.79529229                       0
     94 C0000094      0.79529229                       0
     95 C0000095     -0.79529229                       0
     96 C0000096      0.79529229                       0
     97 C0000097     -0.79529229                       0
     98 C0000098      0.79529229                       0
     99 C0000099     -0.79529229                       0
    100 C0000100      0.79529229                       0
    101 C0000101     -0.79529229                       0
    102 C0000102      0.79529229                       0
    103 C0000103     -0.79529229                       0
    104 C0000104      0.79529229                       0
    105 C0000105     -0.79529229                       0
    106 C0000106      0.79529229                       0
    107 C0000107     -0.79529229                       0
    108 C0000108      0.79529229                       0
    109 C0000109     -0.79529229                       0
    110 C0000110      0.79529229                       0
    111 C0000111     -0.79529229                       0
    112 C0000112      0.79529229                       0
    113 C0000113     -0.79529229                       0
    114 C0000114      0.79529229                       0
    115 C0000115     -0.79529229                       0
    116 C0000116      0.79529229                       0
    117 C0000117     -0.79529229                       0
    118 C0000118      0.79529229                       0
    119 C0000119     -0.79529229                       0
    120 C0000120      0.79529229                       0
    121 C0000121     -0.79529229                       0
    122 C0000122      0.79529229                       0
    123 C0000123     -0.79529229                       0
    124 C0000124      0.79529229                       0
    125 C0000125     -0.79529229                       0
    126 C0000126      0.79529229                       0
    127 C0000127     -0.79529229                       0
    128 C0000128      0.79529229                       0
    129 C0000129     -0.79529229                       0
    130 C0000130      0.79529229                       0
    131 C0000131     -0.79529229                       0
    132 C0000132      0.79529229                       0
    133 C0000133     -0.79529229                       0
    134 C0000134      0.79529229                       0
    135 C0000135     -0.79529229                       0
    136 C0000136      0.79529229                       0
    137 C0000137     -0.79529229                       0
    138 C0000138      0.79529229                       0
    139 C0000139     -0.79529229                       0
    140 C0000140      0.79529229                       0
    141 C0000141     -0.79529229                       0
    142 C0000142      0.79529229                       0
    143 C0000143     -0.79529229                       0
    144 C0000144      0.79529229                       0
    145 C0000145     -0.79529229                       0
    146 C0000146      0.79529229                       0
    147 C0000147     -0.79529229                       0
    148 C0000148      0.79529229                       0
    149 C0000149     -0.79529229                       0
    150 C0000150      0.79529229                       0
    151 C0000151     -0.79529229                       0
    152 C0000152      0.79529229                       0
    153 C0000153     -0.79529229                       0
    154 C0000154      0.79529229                       0
    155 C0000155     -0.79529229                       0
    156 C0000156      0.79529229                       0
    157 C0000157     -0.79529229                       0
    158 C0000158      0.79529229                       0
    159 C0000159     -0.79529229                       0
    160 C0000160      0.79529229                       0
    161 C0000161     -0.79529229                       0
    162 C0000162      0.79529229                       0
    163 C0000163     -0.79529229                       0
    164 C0000164      0.79529229                       0
    165 C0000165     -0.79529229                       0
    166 C0000166      0.79529229                       0
    167 C0000167     -0.79529229                       0
      0 X0000000       1.8646625                       0
      1 X0000001            1.92                       0
      2 X0000002            5.91                       0
      3 X0000003           0.663                       0
      4 X0000004           0.543                       0
      5 X0000005               1                       0
      6 X0000006               4                       0
      7 X0000007               3                       0
      8 X0000008             6.6          -1.110223e-016
      9 X0000009               3                       0
     10 X0000010               1                    1.08
     11 X0000011               1                    0.97
     12 X0000012               1                       0
     13 X0000013               1                       0
     14 X0000014               1                    2.65
     15 X0000015               1                    1.94
     16 X0000016               1                    3.17
     17 X0000017               1                       1
     18 X0000018               1                       0
     19 X0000019               1                    3.33
     20 X0000020               1                    1.81
     21 X0000021               1                    1.28
     22 X0000022               1                     1.8
     23 X0000023               1                       0
     24 X0000024               1                       0
     25 X0000025               1                       0
     26 X0000026               1                       0
     27 X0000027               1                    0.74
     28 X0000028               1                    0.71
     29 X0000029               1                    1.36
     30 X0000030               1                    1.25
     31 X0000031               1                    1.71
     32 X0000032               1                    1.75
     33 X0000033               1                    1.95
     34 X0000034       0.1937764          5.3290705e-015
     35 X0000035      0.19262699          7.9936058e-015
     36 X0000036      0.12947418          1.0658141e-014
     37 X0000037     0.076759224          7.1054274e-015
     38 X0000038       0.1549294         -7.1054274e-015
     39 X0000039      0.11691114          1.0658141e-014
     40 X0000040      0.10315259         -2.8421709e-014
     41 X0000041     0.053915537          1.4210855e-014
     42 X0000042     0.049507559         -7.1054274e-015
     43 X0000043     0.087392121          1.0658141e-014
     44 X0000044    -0.011301822         -7.1054274e-015
     45 X0000045      0.26048541                       0
     46 X0000046     -0.01876768         -7.1054274e-015
     47 X0000047      -0.1140311         -7.1054274e-015
     48 X0000048    -0.092782881          2.8421709e-014
     49 X0000049      0.17178231         -1.4210855e-014
     50 X0000050      0.24420659                       0
     51 X0000051      0.24037794                       0
     52 X0000052      0.28085968          3.5527137e-015
     53 X0000053      0.10728153                       0
     54 X0000054      0.21473153                       0
     55 X0000055      0.20968489                       0
     56 X0000056      0.22638217         -3.5527137e-015
